words_hard_train/1306.qaiger
aag 164 23 0 1 141
2
4
12
16
18
32
44
46
60
72
74
88
100
102
116
128
130
144
156
158
172
208
210
328
6 2 5
8 3 4
10 7 9
14 11 12
20 16 19
22 17 18
24 21 23
26 11 25
28 10 24
30 27 29
34 31 33
36 30 32
38 35 37
40 14 38
42 41 37
48 44 47
50 45 46
52 49 51
54 53 29
56 52 28
58 55 57
62 59 61
64 58 60
66 63 65
68 43 66
70 69 65
76 72 75
78 73 74
80 77 79
82 81 57
84 80 56
86 83 85
90 87 89
92 86 88
94 91 93
96 71 94
98 97 93
104 100 103
106 101 102
108 105 107
110 109 85
112 108 84
114 111 113
118 115 117
120 114 116
122 119 121
124 99 122
126 125 121
132 128 131
134 129 130
136 133 135
138 137 113
140 136 112
142 139 141
146 143 145
148 142 144
150 147 149
152 127 150
154 153 149
160 156 159
162 157 158
164 161 163
166 165 141
168 164 140
170 167 169
174 171 173
176 170 172
178 175 177
180 154 179
182 155 178
184 181 183
186 5 19
188 186 47
190 188 75
192 190 103
194 192 131
196 195 158
198 194 159
200 197 199
202 185 200
204 184 201
206 203 205
212 208 211
214 209 210
216 213 215
218 216 199
220 217 198
222 219 221
224 223 169
226 222 168
228 225 227
230 183 177
232 228 230
234 229 231
236 233 235
238 206 236
240 126 151
242 241 153
244 193 130
246 245 195
248 243 246
250 242 247
252 249 251
254 98 123
256 255 125
258 191 102
260 259 193
262 257 260
264 256 261
266 263 265
268 42 67
270 269 69
272 187 46
274 273 189
276 271 274
278 270 275
280 277 279
282 15 39
284 283 41
286 285 19
288 284 18
290 287 289
292 291 5
294 10 13
296 295 15
298 296 4
300 293 299
302 280 301
304 70 95
306 305 97
308 189 74
310 309 191
312 306 311
314 302 313
316 266 314
318 291 296
320 307 310
322 319 321
324 316 322
326 252 324
328 238 326
i0 1 x1[0]
i1 2 y2[0]
i2 1 x2[0]
i3 1 x1[1]
i4 2 y2[1]
i5 1 x2[1]
i6 1 x1[2]
i7 2 y2[2]
i8 1 x2[2]
i9 1 x1[3]
i10 2 y2[3]
i11 1 x2[3]
i12 1 x1[4]
i13 2 y2[4]
i14 1 x2[4]
i15 1 x1[5]
i16 2 y2[5]
i17 1 x2[5]
i18 1 x1[6]
i19 2 y2[6]
i20 1 x2[6]
i21 1 x2[7]
i22 1 x1[7]
o0 bool[0]
c
simplified
  ==
    unary minus
      2 y2
    subtract
      1 x2
      xor
        2 y2
        1 x1
