words_hard_train/1306.qaiger.qdimacs
p cnf 164 424
a 64 1 36 6 8 72 104 105 44 78 16 50 22 86 58 30 0
e 2 3 4 5 7 9 10 11 12 13 14 15 17 18 19 20 21 23 24 25 26 27 28 29 31 32 33 34 35 37 38 39 40 41 42 43 45 46 47 48 49 51 52 53 54 55 56 57 59 60 61 62 63 65 66 67 68 69 70 71 73 74 75 76 77 79 80 81 82 83 84 85 87 88 89 90 91 92 93 94 95 96 97 98 99 100 101 102 103 106 107 108 109 110 111 112 113 114 115 116 117 118 119 120 121 122 123 124 125 126 127 128 129 130 131 132 133 134 135 136 137 138 139 140 141 142 143 144 145 146 147 148 149 150 151 152 153 154 155 156 157 158 159 160 161 162 163 164 0
-1 2 3 0
1 -3 0
-2 -3 0
1 -2 4 0
-1 -4 0
2 -4 0
3 4 5 0
-3 -5 0
-4 -5 0
5 -6 7 0
-5 -7 0
6 -7 0
-8 9 10 0
8 -10 0
-9 -10 0
8 -9 11 0
-8 -11 0
9 -11 0
10 11 12 0
-10 -12 0
-11 -12 0
5 12 13 0
-5 -13 0
-12 -13 0
-5 -12 14 0
5 -14 0
12 -14 0
13 14 15 0
-13 -15 0
-14 -15 0
15 16 17 0
-15 -17 0
-16 -17 0
-15 -16 18 0
15 -18 0
16 -18 0
17 18 19 0
-17 -19 0
-18 -19 0
-7 -19 20 0
7 -20 0
19 -20 0
20 18 21 0
-20 -21 0
-18 -21 0
-22 23 24 0
22 -24 0
-23 -24 0
22 -23 25 0
-22 -25 0
23 -25 0
24 25 26 0
-24 -26 0
-25 -26 0
26 14 27 0
-26 -27 0
-14 -27 0
-26 -14 28 0
26 -28 0
14 -28 0
27 28 29 0
-27 -29 0
-28 -29 0
29 30 31 0
-29 -31 0
-30 -31 0
-29 -30 32 0
29 -32 0
30 -32 0
31 32 33 0
-31 -33 0
-32 -33 0
21 -33 34 0
-21 -34 0
33 -34 0
34 32 35 0
-34 -35 0
-32 -35 0
-36 37 38 0
36 -38 0
-37 -38 0
36 -37 39 0
-36 -39 0
37 -39 0
38 39 40 0
-38 -40 0
-39 -40 0
40 28 41 0
-40 -41 0
-28 -41 0
-40 -28 42 0
40 -42 0
28 -42 0
41 42 43 0
-41 -43 0
-42 -43 0
43 44 45 0
-43 -45 0
-44 -45 0
-43 -44 46 0
43 -46 0
44 -46 0
45 46 47 0
-45 -47 0
-46 -47 0
35 -47 48 0
-35 -48 0
47 -48 0
48 46 49 0
-48 -49 0
-46 -49 0
-50 51 52 0
50 -52 0
-51 -52 0
50 -51 53 0
-50 -53 0
51 -53 0
52 53 54 0
-52 -54 0
-53 -54 0
54 42 55 0
-54 -55 0
-42 -55 0
-54 -42 56 0
54 -56 0
42 -56 0
55 56 57 0
-55 -57 0
-56 -57 0
57 58 59 0
-57 -59 0
-58 -59 0
-57 -58 60 0
57 -60 0
58 -60 0
59 60 61 0
-59 -61 0
-60 -61 0
49 -61 62 0
-49 -62 0
61 -62 0
62 60 63 0
-62 -63 0
-60 -63 0
-64 65 66 0
64 -66 0
-65 -66 0
64 -65 67 0
-64 -67 0
65 -67 0
66 67 68 0
-66 -68 0
-67 -68 0
68 56 69 0
-68 -69 0
-56 -69 0
-68 -56 70 0
68 -70 0
56 -70 0
69 70 71 0
-69 -71 0
-70 -71 0
71 72 73 0
-71 -73 0
-72 -73 0
-71 -72 74 0
71 -74 0
72 -74 0
73 74 75 0
-73 -75 0
-74 -75 0
63 -75 76 0
-63 -76 0
75 -76 0
76 74 77 0
-76 -77 0
-74 -77 0
-78 79 80 0
78 -80 0
-79 -80 0
78 -79 81 0
-78 -81 0
79 -81 0
80 81 82 0
-80 -82 0
-81 -82 0
82 70 83 0
-82 -83 0
-70 -83 0
-82 -70 84 0
82 -84 0
70 -84 0
83 84 85 0
-83 -85 0
-84 -85 0
85 86 87 0
-85 -87 0
-86 -87 0
-85 -86 88 0
85 -88 0
86 -88 0
87 88 89 0
-87 -89 0
-88 -89 0
-77 89 90 0
77 -90 0
-89 -90 0
77 -89 91 0
-77 -91 0
89 -91 0
90 91 92 0
-90 -92 0
-91 -92 0
2 9 93 0
-2 -93 0
-9 -93 0
-93 23 94 0
93 -94 0
-23 -94 0
-94 37 95 0
94 -95 0
-37 -95 0
-95 51 96 0
95 -96 0
-51 -96 0
-96 65 97 0
96 -97 0
-65 -97 0
97 -79 98 0
-97 -98 0
79 -98 0
-97 79 99 0
97 -99 0
-79 -99 0
98 99 100 0
-98 -100 0
-99 -100 0
92 -100 101 0
-92 -101 0
100 -101 0
-92 100 102 0
92 -102 0
-100 -102 0
101 102 103 0
-101 -103 0
-102 -103 0
-104 105 106 0
104 -106 0
-105 -106 0
104 -105 107 0
-104 -107 0
105 -107 0
106 107 108 0
-106 -108 0
-107 -108 0
-108 99 109 0
108 -109 0
-99 -109 0
108 -99 110 0
-108 -110 0
99 -110 0
109 110 111 0
-109 -111 0
-110 -111 0
111 84 112 0
-111 -112 0
-84 -112 0
-111 -84 113 0
111 -113 0
84 -113 0
112 113 114 0
-112 -114 0
-113 -114 0
91 88 115 0
-91 -115 0
-88 -115 0
-114 -115 116 0
114 -116 0
115 -116 0
114 115 117 0
-114 -117 0
-115 -117 0
116 117 118 0
-116 -118 0
-117 -118 0
-103 -118 119 0
103 -119 0
118 -119 0
-63 75 120 0
63 -120 0
-75 -120 0
120 76 121 0
-120 -121 0
-76 -121 0
96 -65 122 0
-96 -122 0
65 -122 0
122 97 123 0
-122 -123 0
-97 -123 0
121 -123 124 0
-121 -124 0
123 -124 0
-121 123 125 0
121 -125 0
-123 -125 0
124 125 126 0
-124 -126 0
-125 -126 0
-49 61 127 0
49 -127 0
-61 -127 0
127 62 128 0
-127 -128 0
-62 -128 0
95 -51 129 0
-95 -129 0
51 -129 0
129 96 130 0
-129 -130 0
-96 -130 0
128 -130 131 0
-128 -131 0
130 -131 0
-128 130 132 0
128 -132 0
-130 -132 0
131 132 133 0
-131 -133 0
-132 -133 0
-21 33 134 0
21 -134 0
-33 -134 0
134 34 135 0
-134 -135 0
-34 -135 0
93 -23 136 0
-93 -136 0
23 -136 0
136 94 137 0
-136 -137 0
-94 -137 0
135 -137 138 0
-135 -138 0
137 -138 0
-135 137 139 0
135 -139 0
-137 -139 0
138 139 140 0
-138 -140 0
-139 -140 0
7 19 141 0
-7 -141 0
-19 -141 0
141 20 142 0
-141 -142 0
-20 -142 0
142 9 143 0
-142 -143 0
-9 -143 0
-142 -9 144 0
142 -144 0
9 -144 0
143 144 145 0
-143 -145 0
-144 -145 0
145 2 146 0
-145 -146 0
-2 -146 0
-5 6 147 0
5 -147 0
-6 -147 0
147 7 148 0
-147 -148 0
-7 -148 0
-148 -2 149 0
148 -149 0
2 -149 0
146 149 150 0
-146 -150 0
-149 -150 0
-140 150 151 0
140 -151 0
-150 -151 0
-35 47 152 0
35 -152 0
-47 -152 0
152 48 153 0
-152 -153 0
-48 -153 0
94 -37 154 0
-94 -154 0
37 -154 0
154 95 155 0
-154 -155 0
-95 -155 0
-153 155 156 0
153 -156 0
-155 -156 0
-151 156 157 0
151 -157 0
-156 -157 0
-133 -157 158 0
133 -158 0
157 -158 0
145 -148 159 0
-145 -159 0
148 -159 0
153 -155 160 0
-153 -160 0
155 -160 0
159 160 161 0
-159 -161 0
-160 -161 0
-158 -161 162 0
158 -162 0
161 -162 0
-126 -162 163 0
126 -163 0
162 -163 0
-119 -163 164 0
119 -164 0
163 -164 0
164 0
